width = 15;
height_max = 95;
n = 25;
DX = [7, 7, 1, 1, 2, 2, 2, 2, 1, 1, 6, 6, 2, 2, 3, 1, 1, 3, 3, 2, 2, 3, 3, 3, 3];
DY = [12, 7, 7, 5, 3, 6, 7, 5, 3, 6, 12, 9, 12, 7, 10, 4, 5, 16, 5, 4, 5, 10, 9, 16, 5];